c ****************************************************************
c **     This is a Sat-2003 Competition *SHUFFLED* instance     **
c ****************************************************************
c N.B. This header has been added to the file after the competition
c Please do contact L. Simon for more informations (simon@lri.fr)
c 
c Bench submitted by: Rachel Bevan (McGill University, Montreal, CA)
c              email: rachel@mcb.mcgill.ca
c 
c The original name of this formula was: 
c    handmade/bevan/cnf/hypercube4.cnf
c Category : HandMade
c The name used during the competition was: 
c     handmade/set103/sat03-1434.cnf
c The random seed used to shuffle this instance  was: 147429145
c 
c CPU time of solvers on this bench during the first stage 
c  (including Hors-Concours solvers):
c   +------------+--------+--------+
c   | Solver     | Time   | Answer |
c   +------------+--------+--------+
c   | marchsp    |   0.00 |  UNSAT |
c   | marchtt    |   0.00 |  UNSAT |
c   | lsat       |   0.01 |  UNSAT |
c   | tts        |   0.04 |  UNSAT |
c   | satnik     |   0.42 |  UNSAT |
c   | sato       |   0.43 |  UNSAT |
c   | forklift   |   0.51 |  UNSAT |
c   | jerusat1b  |   0.54 |  UNSAT |
c   | berkmin561 |   0.55 |  UNSAT |
c   | jerusat1a  |   0.55 |  UNSAT |
c   | kcnfs      |   0.61 |  UNSAT |
c   | siege      |   0.63 |  UNSAT |
c   | berkmin62  |   0.87 |  UNSAT |
c   | xqingting  |   0.91 |  UNSAT |
c   | satzoo0    |   0.98 |  UNSAT |
c   | funex      |   1.07 |  UNSAT |
c   | bmsat      |   1.37 |  UNSAT |
c   | satzilla   |   1.73 |  UNSAT |
c   | jerusat1c  |   1.95 |  UNSAT |
c   | oepir      |   2.08 |  UNSAT |
c   | zchaff     |   2.36 |  UNSAT |
c   | jquest2    |   2.60 |  UNSAT |
c   | satzoo1    |   3.71 |  UNSAT |
c   | satzilla2  |  30.81 |  UNSAT |
c   | limmat     |  66.58 |  UNSAT |
c   | opensat    | 485.18 |  UNSAT |
c   | amvo       | 900.00 |   --   |
c   | compsat    | 900.00 |   --   |
c   | farseer    | 900.00 |   --   |
c   | marchxq    | 900.00 |   --   |
c   | qingting   | 900.00 |   --   |
c   | saturn     | 900.00 |   --   |
c   | unitwalk   | 900.00 |   --   |
c   +------------+--------+--------+
c
c Old header begins here:
c The random seed used to shuffle this instance was seed=147429145
p cnf 32 128
-10 26 -28 -7 0
32 -4 -31 -16 0
-4 -16 31 -32 0
-12 -9 -32 -26 0
13 -5 -24 -31 0
18 -20 29 -14 0
-8 -25 -11 27 0
-2 -5 1 8 0
16 21 -23 22 0
-6 -27 22 -19 0
26 -7 28 10 0
-6 -15 10 -30 0
2 -7 -4 19 0
-20 29 14 -18 0
3 24 -12 18 0
8 27 11 -25 0
20 14 -29 -18 0
17 -28 -1 -3 0
-11 -23 14 13 0
-9 15 -21 -20 0
14 23 -11 -13 0
20 18 29 14 0
6 -22 27 19 0
-26 28 -10 -7 0
-18 -24 -3 12 0
-13 24 5 31 0
-32 4 -31 -16 0
-25 -30 29 -17 0
2 4 19 7 0
-25 -17 30 -29 0
9 15 20 -21 0
-15 -21 20 -9 0
4 -7 19 -2 0
-28 -17 1 -3 0
-2 -8 5 1 0
27 25 11 -8 0
3 17 28 -1 0
8 -27 11 25 0
13 -5 24 31 0
24 5 13 -31 0
-9 12 -32 26 0
-11 27 8 25 0
7 26 -28 10 0
19 -6 27 22 0
12 -26 -9 32 0
-4 -2 -19 -7 0
20 29 -14 -18 0
32 16 -4 31 0
15 21 -9 20 0
24 -5 -31 -13 0
27 -22 -19 -6 0
-10 7 28 26 0
9 -15 -21 -20 0
-29 18 -20 14 0
-25 -29 -30 17 0
21 -15 -20 -9 0
-5 2 -8 1 0
18 12 -3 24 0
3 18 -24 12 0
5 31 13 -24 0
30 25 -29 17 0
23 21 -22 16 0
6 -10 30 15 0
5 8 -2 -1 0
31 -5 -13 -24 0
23 11 13 14 0
-26 9 12 -32 0
-2 7 -19 4 0
3 -24 -18 -12 0
16 -32 -4 -31 0
-7 -26 10 -28 0
-27 19 -22 -6 0
2 -1 8 -5 0
-30 -10 -15 6 0
9 -26 -12 32 0
-21 23 16 22 0
15 -30 -6 -10 0
17 3 -28 1 0
2 7 -19 -4 0
9 -12 26 -32 0
16 -22 -23 -21 0
16 4 32 -31 0
8 -25 -11 -27 0
-12 26 32 -9 0
-1 -28 -17 3 0
-4 -2 7 19 0
-15 30 10 6 0
-32 31 4 16 0
-8 -5 -2 -1 0
-21 -16 -23 22 0
-14 13 -11 23 0
28 -1 -17 -3 0
30 -10 -15 -6 0
11 23 -14 -13 0
7 28 10 -26 0
27 -19 22 6 0
2 -19 -7 4 0
25 -30 29 17 0
28 -17 3 1 0
-25 30 17 29 0
-14 -23 -11 -13 0
-28 7 -10 -26 0
-17 25 -29 -30 0
-18 -12 24 -3 0
1 2 8 5 0
-18 12 24 3 0
-16 -21 -22 23 0
-8 2 5 -1 0
-15 9 20 21 0
32 31 -16 4 0
-16 21 -23 -22 0
-23 11 14 -13 0
6 -22 -19 -27 0
30 29 25 -17 0
-14 13 11 -23 0
1 -3 17 28 0
-29 20 -14 18 0
15 -20 21 9 0
26 32 9 12 0
6 15 -30 10 0
-12 -3 18 -24 0
-6 10 30 15 0
-18 -29 -14 -20 0
6 -27 19 22 0
11 -27 -8 -25 0
-11 -27 -8 25 0
22 21 -16 23 0
5 -31 -13 -24 0
